TYPE : Vertex Cover
DIMENSION: 33
EDGE_DATA_SECTION:
0 1
0 8
0 22
1 7
1 9
1 17
2 4
2 6
2 8
2 9
2 14
2 15
2 22
2 24
2 26
2 30
2 32
3 5
3 29
4 16
4 17
4 25
4 32
5 12
5 23
5 26
5 27
6 20
6 24
6 25
6 31
7 11
7 15
7 26
8 10
9 10
9 16
9 17
9 25
9 32
10 14
10 25
10 29
11 15
11 19
11 21
12 16
12 19
12 25
12 26
14 22
14 26
14 27
15 25
16 22
17 21
17 32
18 21
18 22
18 23
19 20
19 26
20 26
21 22
21 30
22 23
22 30
23 30
24 32
25 28
25 29
27 29
28 29
29 32
-1
VERTEX_DEGREE:
3.0 4.0 11.0 2.0 5.0 5.0 5.0 4.0 3.0 7.0 5.0 4.0 5.0 0.0 5.0 4.0 4.0 5.0 3.0 4.0 3.0 5.0 8.0 4.0 3.0 8.0 7.0 3.0 2.0 6.0 4.0 1.0 6.0
VERTEX_COVER:
1 2 5 6 7 8 9 11 14 16 17 19 21 22 23 25 26 29 32
EOF
